1	1	1	0	2	6	3	86	
2	2	1	29	2	0	3	49	
3	3	1	62	2	85	3	0	
4	4	1	64	2	72	3	23	4	0	5	47	6	28	7	102	8	64	9	85	10	14	11	4
5	5	1	16	2	54	3	74	4	68	5	0	6	47	7	106	8	74	9	49	10	36	11	19
6	6	1	27	2	98	3	24	4	44	5	62	6	0	7	86	8	94	9	15	10	25	11	58
7	7	1	40	2	98	3	50	4	18	5	95	6	25	7	0	8	58	9	95	10	14	11	97
8	8	1	84	2	85	3	37	4	36	5	82	6	93	7	61	8	0	9	96	10	40	11	40
9	9	1	16	2	16	3	26	4	66	5	55	6	20	7	21	8	49	9	0	10	42	11	59
10	10	1	25	2	24	3	49	4	60	5	38	6	39	7	61	8	81	9	34	10	0	11	49
11	11	1	48	2	95	3	62	4	11	5	65	6	91	7	65	8	63	9	52	10	100	11	0